Version identifier: 12.10.0.0 | 2019-11-26 | 843d4de
CPXPARAM_Read_DataCheck                          1
CPXPARAM_RandomSeed                              201903125
CPXPARAM_TimeLimit                               3600
Parallel mode: deterministic, using up to 8 threads for concurrent optimization:
 * Starting dual Simplex on 1 thread...
 * Starting Barrier on 6 threads...
 * Starting primal Simplex on 1 thread...
Tried aggregator 1 time.
No LP presolve or aggregator reductions.
Presolve time = 0.01 sec. (10.07 ticks)

Iteration log . . .
Iteration:     1   Dual objective     =           990.000000
Perturbation started.
Iteration:   101   Dual objective     =           990.000000
Iteration:   246   Dual objective     =           990.025084
Iteration:   401   Dual objective     =           990.054590
Iteration:   733   Dual objective     =           990.056252
Iteration:  1071   Dual objective     =           990.056256
Iteration:  1412   Dual objective     =           990.056259
Iteration:  1753   Dual objective     =           990.056262
Iteration:  2097   Dual objective     =           990.056264
Iteration:  2441   Dual objective     =           990.056266
Iteration:  2782   Dual objective     =           990.056268
Iteration:  3134   Dual objective     =           990.056269
Iteration:  3491   Dual objective     =           990.056270
Iteration:  3836   Dual objective     =           990.056270
Removing perturbation.

Dual simplex solved model.

